
Gurobi 6.5.2 (linux64) logging started Tue Sep 20 21:16:44 2016


Gurobi 6.5.2 (linux64) logging started Tue Sep 20 21:16:44 2016

Optimize a model with 101 rows, 663 columns and 1341 nonzeros
Coefficient statistics:
  Matrix range    [1e+00, 2e+00]
  Objective range [3e+00, 1e+02]
  Bounds range    [1e+00, 1e+00]
  RHS range       [1e+00, 1e+00]
Presolve removed 44 rows and 36 columns
Presolve time: 0.00s
Presolved: 57 rows, 627 columns, 1259 nonzeros
Variable types: 0 continuous, 627 integer (627 binary)
Found heuristic solution: objective 2751.0000000

Root relaxation: objective 7.885000e+02, 67 iterations, 0.00 seconds

    Nodes    |    Current Node    |     Objective Bounds      |     Work
 Expl Unexpl |  Obj  Depth IntInf | Incumbent    BestBd   Gap | It/Node Time

     0     0  788.50000    0   10 2751.00000  788.50000  71.3%     -    0s
     0     0  793.00000    0    8 2751.00000  793.00000  71.2%     -    0s
     0     0  795.16667    0   16 2751.00000  795.16667  71.1%     -    0s
     0     0  795.83333    0   25 2751.00000  795.83333  71.1%     -    0s
     0     0  796.00000    0   10 2751.00000  796.00000  71.1%     -    0s
     0     0  796.00000    0   10 2751.00000  796.00000  71.1%     -    0s
     0     2  809.75000    0   20 2751.00000  809.75000  70.6%     -    0s
*  152    98              28     856.0000000  814.50000  4.85%   3.5    0s
*  771   393              22     855.0000000  819.87500  4.11%   3.4    0s
*  839   448              18     853.0000000  819.87500  3.88%   3.5    0s
*  884   322              14     841.0000000  819.87500  2.51%   3.4    0s
*  949    42              14     831.0000000  821.50000  1.14%   3.4    0s

Cutting planes:
  Cover: 10
  MIR: 1
  Zero half: 5
  Lazy constraints: 137

Explored 1607 nodes (5520 simplex iterations) in 0.20 seconds
Thread count was 8 (of 8 available processors)

Optimal solution found (tolerance 1.00e-04)
Best objective 8.310000000000e+02, best bound 8.310000000000e+02, gap 0.0%
